8
Properties=species:S:1:pos:R:3:forces:R:3:energies:R:1 energy=-45.059017181396484 stress="-4.273577935975936e-09 -4.5228934486551964e-10 -1.3433820722497103e-10 -4.5228934486551964e-10 4.983742307729244e-09 -3.213050936423656e-10 -1.3433820722497103e-10 -3.213050936423656e-10 2.3582231722940605e-09" free_energy=-45.059017181396484 pbc="F F F"
C       -0.86243839       0.40566244      -1.88808570      -0.00050548       0.00002119      -0.00104640      -9.13480264
C        1.63317270       0.58404960       1.83000346       0.00046968      -0.00019029       0.00007689      -9.50726104
O        0.49037176       0.35901647       1.60376027       0.00009847       0.00024629       0.00025296      -5.96470439
O        2.75495812       0.80642308       2.06541252       0.00037736      -0.00005960      -0.00006115      -6.54068881
Li      -0.84833062       0.00664203       0.10468207      -0.00008143       0.00013921       0.00003865      -2.70907426
H       -1.22610741      -1.74770912      -0.09815528      -0.00033920       0.00069587       0.00052959      -3.69179982
H       -0.74434465       1.04935241      -2.79141857       0.00001583       0.00057213      -0.00028935      -3.75535618
H       -1.19729196      -1.46332286      -0.82611123      -0.00003541      -0.00142455       0.00049880      -3.75533228
