8
Properties=species:S:1:pos:R:3:forces:R:3:energies:R:1 energy=-45.059017181396484 stress="-4.273577935975936e-09 -4.5228934486551964e-10 -1.3433820722497103e-10 -4.5228934486551964e-10 4.983742307729244e-09 -3.213050936423656e-10 -1.3433820722497103e-10 -3.213050936423656e-10 2.3582231722940605e-09" free_energy=-45.059017181396484 pbc="F F F"
C       -1.48674651      -0.19902269       0.20435825      -0.00050548       0.00002119      -0.00104640      -9.13480264
C        2.26405579       0.05080625      -0.38654505       0.00046968      -0.00019029       0.00007689      -9.50726104
O        1.63249571       0.98024825       0.00078362       0.00009847       0.00024629       0.00025296      -5.96470439
O        2.90813074      -0.84500235      -0.76617875       0.00037736      -0.00005960      -0.00006115      -6.54068881
Li      -0.27965697       1.46222231       0.48769549      -0.00008143       0.00013921       0.00003865      -2.70907426
H       -1.94978109      -0.47776534       1.16250745      -0.00033920       0.00069587       0.00052959      -3.69179982
H       -2.25450230       0.03616688      -0.54762759       0.00001583       0.00057213      -0.00028935      -3.75535618
H       -0.83398542      -1.00765008      -0.15499722      -0.00003541      -0.00142455       0.00049880      -3.75533228
