8
Properties=species:S:1:pos:R:3:forces:R:3:energies:R:1 energy=-45.059017181396484 stress="-4.273577935975936e-09 -4.5228934486551964e-10 -1.3433820722497103e-10 -4.5228934486551964e-10 4.983742307729244e-09 -3.213050936423656e-10 -1.3433820722497103e-10 -3.213050936423656e-10 2.3582231722940605e-09" free_energy=-45.059017181396484 pbc="F F F"
C       -1.35561509      -0.78102271       0.56653269      -0.00050548       0.00002119      -0.00104640      -9.13480264
C        2.01352796       1.36270339      -0.69596528       0.00046968      -0.00019029       0.00007689      -9.50726104
O        1.57780732       0.32904261      -1.08860970       0.00009847       0.00024629       0.00025296      -5.96470439
O        2.45801637       2.37613654      -0.32552817       0.00037736      -0.00005960      -0.00006115      -6.54068881
Li       0.11175720      -1.06561449      -0.87097861      -0.00008143       0.00013921       0.00003865      -2.70907426
H       -1.96532390      -1.69731764       0.59319537      -0.00033920       0.00069587       0.00052959      -3.69179982
H       -1.96961468       0.08606046       0.28301331       0.00001583       0.00057213      -0.00028935      -3.75535618
H       -0.87055939      -0.60998602       1.53833459      -0.00003541      -0.00142455       0.00049880      -3.75533228
