8
Properties=species:S:1:pos:R:3:forces:R:3:energies:R:1 energy=-45.059017181396484 stress="-4.273577935975936e-09 -4.5228934486551964e-10 -1.3433820722497103e-10 -4.5228934486551964e-10 4.983742307729244e-09 -3.213050936423656e-10 -1.3433820722497103e-10 -3.213050936423656e-10 2.3582231722940605e-09" free_energy=-45.059017181396484 pbc="F F F"
C       -0.65373152      -0.14746154      -0.09705233      -0.00050548       0.00002119      -0.00104640      -9.13480264
C        0.83260942      -0.21516581      -0.41147632       0.00046968      -0.00019029       0.00007689      -9.50726104
O        1.24574599      -0.88321081      -1.36066512       0.00009847       0.00024629       0.00025296      -5.96470439
O        1.51794421       0.50477762       0.44067119       0.00037736      -0.00005960      -0.00006115      -6.54068881
Li       0.21370814       1.14604153       1.48954186      -0.00008143       0.00013921       0.00003865      -2.70907426
H       -1.23656629      -0.74086542      -0.79671957      -0.00033920       0.00069587       0.00052959      -3.69179982
H       -0.87790404      -0.55283214       0.91078367       0.00001583       0.00057213      -0.00028935      -3.75535618
H       -1.04180832       0.88871791      -0.17508368      -0.00003541      -0.00142455       0.00049880      -3.75533228
