8
Properties=species:S:1:pos:R:3:forces:R:3:energies:R:1 energy=-45.059017181396484 stress="-4.273577935975936e-09 -4.5228934486551964e-10 -1.3433820722497103e-10 -4.5228934486551964e-10 4.983742307729244e-09 -3.213050936423656e-10 -1.3433820722497103e-10 -3.213050936423656e-10 2.3582231722940605e-09" free_energy=-45.059017181396484 pbc="F F F"
C       -0.66904057      -0.07067915      -0.07733258      -0.00050548       0.00002119      -0.00104640      -9.13480264
C        0.78673268      -0.22534970      -0.48892816       0.00046968      -0.00019029       0.00007689      -9.50726104
O        1.57980816       0.28994582       0.41646953       0.00009847       0.00024629       0.00025296      -5.96470439
O        1.08617107      -0.77505174      -1.55005102       0.00037736      -0.00005960      -0.00006115      -6.54068881
Li       0.39673211       0.88203017       1.62556641      -0.00008143       0.00013921       0.00003865      -2.70907426
H       -0.95519661       0.99626915       0.02178707      -0.00033920       0.00069587       0.00052959      -3.69179982
H       -1.34036847      -0.49492879      -0.81946056       0.00001583       0.00057213      -0.00028935      -3.75535618
H       -0.88483527      -0.60223674       0.87194731      -0.00003541      -0.00142455       0.00049880      -3.75533228
