26
Properties=species:S:1:pos:R:3:forces:R:3:energies:R:1 energy=-157.4524688720703 stress="4.543554865676924e-09 -6.86801934768333e-11 9.808130974064966e-10 -6.86801934768333e-11 1.120781800700854e-09 1.119856651854434e-09 9.808130974064966e-10 1.119856651854434e-09 -5.595702234906241e-10" free_energy=-157.4524688720703 pbc="F F F"
O       -2.51445692      -2.32165303      -0.61824358      -0.00043494       0.00074399      -0.00026220      -6.39386827
C       -2.96735900      -1.25463192      -0.21835916       0.00053906       0.00272572       0.00004661      -9.19783491
C       -4.23957190      -0.94300167       0.46497080       0.00113076      -0.00285250       0.00015730      -8.53982122
C       -4.24418367       0.34742819       0.84108434       0.00008297      -0.00243047      -0.00039700      -8.54080741
C       -2.97735329       0.98646740       0.43063397      -0.00122976       0.00268149      -0.00112693      -9.19719028
O       -2.53466480       2.10638624       0.66194320      -0.00032377      -0.00369179       0.00045611      -6.39319628
N       -2.32292152      -0.01074810      -0.31072742       0.00158030       0.00129869       0.00162144      -8.20813596
C       -0.94119336       0.13553381      -0.79433319       0.00304893       0.00140826       0.00075310      -9.59320259
C        0.11043899      -0.17011315       0.26375578      -0.00069966      -0.00025422       0.00064722      -9.57043266
C        1.51758486       0.07884902      -0.25551153      -0.00190030      -0.00004042      -0.00171316      -9.57070720
C        2.58987845      -0.20964535       0.79813177      -0.00191295       0.00164306       0.00076470      -9.50298560
C        3.99841409       0.07994141       0.30245238      -0.00057855      -0.00062490       0.00014254      -9.39499307
O        4.13741934       1.47806510       0.10450893      -0.00309306      -0.00042021      -0.00114873      -7.13565840
H       -4.98009155      -1.71104010       0.61942981       0.00153245      -0.00180441       0.00252381      -3.83671029
H       -4.98834868       0.90671453       1.38488883       0.00229833       0.00021464      -0.00262851      -3.83656381
H       -0.84390310       1.17161315      -1.13577855       0.00021005       0.00121419       0.00008723      -3.53799513
H       -0.83600384      -0.55554324      -1.63743964      -0.00088137       0.00189705      -0.00051549      -3.53660080
H       -0.07198077       0.46601047       1.14361262      -0.00277938      -0.00056870       0.00004190      -3.54308387
H        0.00434486      -1.22213675       0.56993411      -0.00254980       0.00039053       0.00078796      -3.54039142
H        1.60119307       1.12658328      -0.57769502      -0.00003485       0.00148953       0.00037242      -3.53934954
H        1.69612328      -0.55325558      -1.13856928       0.00232103      -0.00153441      -0.00155796      -3.52946796
H        2.37579074       0.39893018       1.68625919       0.00112145       0.00222787       0.00196806      -3.55478171
H        2.52536717      -1.26625292       1.08593510      -0.00138089       0.00085910      -0.00039457      -3.59934295
H        4.71404507      -0.25704483       1.06657240       0.00109725      -0.00137052      -0.00024451      -3.42910460
H        4.16995564      -0.45795569      -0.64236594       0.00020739      -0.00109965      -0.00026064      -3.41398987
H        5.02147772       1.65049311      -0.25087731       0.00262983      -0.00210108      -0.00012095      -3.31622526
