26
Properties=species:S:1:pos:R:3:forces:R:3:energies:R:1 energy=-157.4524688720703 stress="4.543554865676924e-09 -6.86801934768333e-11 9.808130974064966e-10 -6.86801934768333e-11 1.120781800700854e-09 1.119856651854434e-09 9.808130974064966e-10 1.119856651854434e-09 -5.595702234906241e-10" free_energy=-157.4524688720703 pbc="F F F"
O        2.40595131      -0.50774569      -1.95722374      -0.00043494       0.00074399      -0.00026220      -6.39386827
C        2.83779382       0.01238202      -0.93419358       0.00053906       0.00272572       0.00004661      -9.19783491
C        4.21765641       0.12343222      -0.41822147       0.00113076      -0.00285250       0.00015730      -8.53982122
C        4.19510235       0.66010766       0.81405557       0.00008297      -0.00243047      -0.00039700      -8.54080741
C        2.79928164       0.94350074       1.20479236      -0.00122976       0.00268149      -0.00112693      -9.19719028
O        2.32908534       1.33014406       2.26922572      -0.00032377      -0.00369179       0.00045611      -6.39319628
N        2.06044929       0.64570955       0.04885100       0.00158030       0.00129869       0.00162144      -8.20813596
C        0.58855773       0.62780855       0.02673314       0.00304893       0.00140826       0.00075310      -9.59320259
C       -0.01953103      -0.69109448       0.50185694      -0.00069966      -0.00025422       0.00064722      -9.57043266
C       -1.54196835      -0.63989587       0.58949841      -0.00190030      -0.00004042      -0.00171316      -9.57070720
C       -2.24026556      -0.36880018      -0.74909623      -0.00191295       0.00164306       0.00076470      -9.50298560
C       -3.75904709      -0.39751487      -0.64134364      -0.00057855      -0.00062490       0.00014254      -9.39499307
O       -4.18851432       0.73596704       0.09619348      -0.00309306      -0.00042021      -0.00114873      -7.13565840
H        5.05130490      -0.22878322      -1.00415417       0.00153245      -0.00180441       0.00252381      -3.83671029
H        5.00501655       0.85915919       1.49704847       0.00229833       0.00021464      -0.00262851      -3.83656381
H        0.29751177       0.82988362      -1.01025445       0.00021005       0.00121419       0.00008723      -3.53799513
H        0.26604227       1.45037642       0.67595549      -0.00088137       0.00189705      -0.00051549      -3.53660080
H        0.38108721      -0.91685167       1.49990270      -0.00277938      -0.00056870       0.00004190      -3.54308387
H        0.29728624      -1.48721703      -0.18741950      -0.00254980       0.00039053       0.00078796      -3.54039142
H       -1.84004344       0.14163692       1.30187259      -0.00003485       0.00148953       0.00037242      -3.53934954
H       -1.89535268      -1.60240234       0.98126594       0.00232103      -0.00153441      -0.00155796      -3.52946796
H       -1.92568760      -1.13329823      -1.47270489       0.00112145       0.00222787       0.00196806      -3.55478171
H       -1.91530976       0.60796488      -1.13044499      -0.00138089       0.00085910      -0.00039457      -3.59934295
H       -4.07584097      -1.32361696      -0.13736700       0.00109725      -0.00137052      -0.00024451      -3.42910460
H       -4.18031274      -0.35770588      -1.65702075       0.00020739      -0.00109965      -0.00026064      -3.41398987
H       -5.15025310       0.68685338       0.19887598       0.00262983      -0.00210108      -0.00012095      -3.31622526
