26
Properties=species:S:1:pos:R:3:forces:R:3:energies:R:1 energy=-157.4524688720703 stress="4.543554865676924e-09 -6.86801934768333e-11 9.808130974064966e-10 -6.86801934768333e-11 1.120781800700854e-09 1.119856651854434e-09 9.808130974064966e-10 1.119856651854434e-09 -5.595702234906241e-10" free_energy=-157.4524688720703 pbc="F F F"
O        1.97194696       1.77173366       1.59506073      -0.00043494       0.00074399      -0.00026220      -6.39386827
C        2.45329678       0.98662270       0.78411701       0.00053906       0.00272572       0.00004661      -9.19783491
C        3.58791732       1.14227208      -0.14600221       0.00113076      -0.00285250       0.00015730      -8.53982122
C        3.71001699       0.03762289      -0.90242024       0.00008297      -0.00243047      -0.00039700      -8.54080741
C        2.66831635      -0.93700304      -0.52846413      -0.00122976       0.00268149      -0.00112693      -9.19719028
O        2.40258098      -2.03898042      -0.99661711      -0.00032377      -0.00369179       0.00045611      -6.39319628
N        1.98325410      -0.31091959       0.52533644       0.00158030       0.00129869       0.00162144      -8.20813596
C        0.83828339      -0.91402609       1.20530689       0.00304893       0.00140826       0.00075310      -9.59320259
C       -0.44012142      -0.96675364       0.37380163      -0.00069966      -0.00025422       0.00064722      -9.57043266
C       -0.91445119       0.38159554      -0.15594406      -0.00190030      -0.00004042      -0.00171316      -9.57070720
C       -2.30425436       0.32787114      -0.81868115      -0.00191295       0.00164306       0.00076470      -9.50298560
C       -3.46003408       0.53766633       0.15472392      -0.00057855      -0.00062490       0.00014254      -9.39499307
O       -3.55473374      -0.57904377       1.02361721      -0.00309306      -0.00042021      -0.00114873      -7.13565840
H        4.16546814       2.05244621      -0.15571941       0.00153245      -0.00180441       0.00252381      -3.83671029
H        4.41343727      -0.18909290      -1.68713429       0.00229833       0.00021464      -0.00262851      -3.83656381
H        0.67786257      -0.33320576       2.11693299       0.00021005       0.00121419       0.00008723      -3.53799513
H        1.12253087      -1.93916286       1.46196463      -0.00088137       0.00189705      -0.00051549      -3.53660080
H       -0.28584748      -1.65590227      -0.46940166      -0.00277938      -0.00056870       0.00004190      -3.54308387
H       -1.23160289      -1.38883045       1.00801376      -0.00254980       0.00039053       0.00078796      -3.54039142
H       -0.19644641       0.73059145      -0.91479436      -0.00003485       0.00148953       0.00037242      -3.53934954
H       -0.91206161       1.11972073       0.65930100       0.00232103      -0.00153441      -0.00155796      -3.52946796
H       -2.41586011      -0.63095064      -1.33882974       0.00112145       0.00222787       0.00196806      -3.55478171
H       -2.34169233       1.12564023      -1.56780221      -0.00138089       0.00085910      -0.00039457      -3.59934295
H       -4.39581092       0.63166001      -0.41651060       0.00109725      -0.00137052      -0.00024451      -3.42910460
H       -3.27778707       1.45262402       0.73852197       0.00020739      -0.00109965      -0.00026064      -3.41398987
H       -4.26421359      -0.41422684       1.66279345       0.00262983      -0.00210108      -0.00012095      -3.31622526
