26
Properties=species:S:1:pos:R:3:forces:R:3:energies:R:1 energy=-157.4524688720703 stress="4.543554865676924e-09 -6.86801934768333e-11 9.808130974064966e-10 -6.86801934768333e-11 1.120781800700854e-09 1.119856651854434e-09 9.808130974064966e-10 1.119856651854434e-09 -5.595702234906241e-10" free_energy=-157.4524688720703 pbc="F F F"
O       -0.56610698       2.18143906      -0.34831603      -0.00043494       0.00074399      -0.00026220      -6.39386827
C       -1.32421402       1.32960935       0.11596708       0.00053906       0.00272572       0.00004661      -9.19783491
C       -2.22445696       1.41077335       1.27836104       0.00113076      -0.00285250       0.00015730      -8.53982122
C       -2.89890490       0.25376789       1.40073209       0.00008297      -0.00243047      -0.00039700      -8.54080741
C       -2.49394924      -0.67455198       0.33495214      -0.00122976       0.00268149      -0.00112693      -9.19719028
O       -2.87643713      -1.80838529       0.06864111      -0.00032377      -0.00369179       0.00045611      -6.39319628
N       -1.48787572       0.02530258      -0.36129006       0.00158030       0.00129869       0.00162144      -8.20813596
C       -0.93517070      -0.43607839      -1.64031584       0.00304893       0.00140826       0.00075310      -9.59320259
C        0.58760782      -0.46432455      -1.66230957      -0.00069966      -0.00025422       0.00064722      -9.57043266
C        1.21831553      -1.28989654      -0.53442499      -0.00190030      -0.00004042      -0.00171316      -9.57070720
C        2.44064765      -0.64258577       0.12698003      -0.00191295       0.00164306       0.00076470      -9.50298560
C        2.16851339       0.68469115       0.82588963      -0.00057855      -0.00062490       0.00014254      -9.39499307
O        1.12742544       0.49884914       1.77173344      -0.00309306      -0.00042021      -0.00114873      -7.13565840
H       -2.27364544       2.31635849       1.86293323       0.00153245      -0.00180441       0.00252381      -3.83671029
H       -3.64094340      -0.03447745       2.12750630       0.00229833       0.00021464      -0.00262851      -3.83656381
H       -1.34544329      -1.43579696      -1.80227249       0.00021005       0.00121419       0.00008723      -3.53799513
H       -1.29046108       0.23860596      -2.43094200      -0.00088137       0.00189705      -0.00051549      -3.53660080
H        0.96715060       0.56384804      -1.67016115      -0.00277938      -0.00056870       0.00004190      -3.54308387
H        0.87047314      -0.92253249      -2.62058054      -0.00254980       0.00039053       0.00078796      -3.54039142
H        0.47141056      -1.52508074       0.23476631      -0.00003485       0.00148953       0.00037242      -3.53934954
H        1.54125607      -2.24648480      -0.96954000       0.00232103      -0.00153441      -0.00155796      -3.52946796
H        3.22299433      -0.48441422      -0.62420611       0.00112145       0.00222787       0.00196806      -3.55478171
H        2.82980992      -1.35250476       0.86628203      -0.00138089       0.00085910      -0.00039457      -3.59934295
H        1.87338596       1.45649518       0.09919703       0.00109725      -0.00137052      -0.00024451      -3.42910460
H        3.08574880       1.00765438       1.34576132       0.00020739      -0.00109965      -0.00026064      -3.41398987
H        0.95285989       1.34976026       2.20464861       0.00262983      -0.00210108      -0.00012095      -3.31622526
