26
Properties=species:S:1:pos:R:3:forces:R:3:energies:R:1 energy=-157.4524688720703 stress="4.543554865676924e-09 -6.86801934768333e-11 9.808130974064966e-10 -6.86801934768333e-11 1.120781800700854e-09 1.119856651854434e-09 9.808130974064966e-10 1.119856651854434e-09 -5.595702234906241e-10" free_energy=-157.4524688720703 pbc="F F F"
O       -0.56610698       2.18143906      -0.34831603      -0.00043494       0.00074399      -0.00026220      -6.39386827
C       -1.32421402       1.32960935       0.11596708       0.00053906       0.00272572       0.00004661      -9.19783491
C       -2.22445696       1.41077335       1.27836104       0.00113076      -0.00285250       0.00015730      -8.53982122
C       -2.89890490       0.25376789       1.40073209       0.00008297      -0.00243047      -0.00039700      -8.54080741
C       -2.49394924      -0.67455198       0.33495214      -0.00122976       0.00268149      -0.00112693      -9.19719028
O       -2.87643713      -1.80838529       0.06864111      -0.00032377      -0.00369179       0.00045611      -6.39319628
N       -1.48787572       0.02530258      -0.36129006       0.00158030       0.00129869       0.00162144      -8.20813596
C       -0.93517070      -0.43607839      -1.64031584       0.00304893       0.00140826       0.00075310      -9.59320259
C        0.58760782      -0.46432455      -1.66230957      -0.00069966      -0.00025422       0.00064722      -9.57043266
C        1.21831553      -1.28989654      -0.53442499      -0.00190030      -0.00004042      -0.00171316      -9.57070720
C        2.44064765      -0.64258577       0.12698003      -0.00191295       0.00164306       0.00076470      -9.50298560
C        2.16851339       0.68469115       0.82588963      -0.00057855      -0.00062490       0.00014254      -9.39499307
O        1.12742544       0.49884914       1.77173344      -0.00309306      -0.00042021      -0.00114873      -7.13565840
H       -2.27364544       2.31635849       1.86293323       0.00153245      -0.00180441       0.00252381      -3.83671029
H       -3.64094340      -0.03447745       2.12750630       0.00229833       0.00021464      -0.00262851      -3.83656381
H       -1.34544329      -1.43579696      -1.80227249       0.00021005       0.00121419       0.00008723      -3.53799513
H       -1.29046108       0.23860596      -2.43094200      -0.00088137       0.00189705      -0.00051549      -3.53660080
H        0.96715060       0.56384804      -1.67016115      -0.00277938      -0.00056870       0.00004190      -3.54308387
H        0.87047314      -0.92253249      -2.62058054      -0.00254980       0.00039053       0.00078796      -3.54039142
H        0.47141056      -1.52508074       0.23476631      -0.00003485       0.00148953       0.00037242      -3.53934954
H        1.54125607      -2.24648480      -0.96954000       0.00232103      -0.00153441      -0.00155796      -3.52946796
H        3.22299433      -0.48441422      -0.62420611       0.00112145       0.00222787       0.00196806      -3.55478171
H        2.82980992      -1.35250476       0.86628203      -0.00138089       0.00085910      -0.00039457      -3.59934295
H        1.87338596       1.45649518       0.09919703       0.00109725      -0.00137052      -0.00024451      -3.42910460
H        3.08574880       1.00765438       1.34576132       0.00020739      -0.00109965      -0.00026064      -3.41398987
H        0.95285989       1.34976026       2.20464861       0.00262983      -0.00210108      -0.00012095      -3.31622526
26
Properties=species:S:1:pos:R:3:forces:R:3:energies:R:1 energy=-157.4524688720703 stress="4.543554865676924e-09 -6.86801934768333e-11 9.808130974064966e-10 -6.86801934768333e-11 1.120781800700854e-09 1.119856651854434e-09 9.808130974064966e-10 1.119856651854434e-09 -5.595702234906241e-10" free_energy=-157.4524688720703 pbc="F F F"
O        1.97194696       1.77173366       1.59506073      -0.00043494       0.00074399      -0.00026220      -6.39386827
C        2.45329678       0.98662270       0.78411701       0.00053906       0.00272572       0.00004661      -9.19783491
C        3.58791732       1.14227208      -0.14600221       0.00113076      -0.00285250       0.00015730      -8.53982122
C        3.71001699       0.03762289      -0.90242024       0.00008297      -0.00243047      -0.00039700      -8.54080741
C        2.66831635      -0.93700304      -0.52846413      -0.00122976       0.00268149      -0.00112693      -9.19719028
O        2.40258098      -2.03898042      -0.99661711      -0.00032377      -0.00369179       0.00045611      -6.39319628
N        1.98325410      -0.31091959       0.52533644       0.00158030       0.00129869       0.00162144      -8.20813596
C        0.83828339      -0.91402609       1.20530689       0.00304893       0.00140826       0.00075310      -9.59320259
C       -0.44012142      -0.96675364       0.37380163      -0.00069966      -0.00025422       0.00064722      -9.57043266
C       -0.91445119       0.38159554      -0.15594406      -0.00190030      -0.00004042      -0.00171316      -9.57070720
C       -2.30425436       0.32787114      -0.81868115      -0.00191295       0.00164306       0.00076470      -9.50298560
C       -3.46003408       0.53766633       0.15472392      -0.00057855      -0.00062490       0.00014254      -9.39499307
O       -3.55473374      -0.57904377       1.02361721      -0.00309306      -0.00042021      -0.00114873      -7.13565840
H        4.16546814       2.05244621      -0.15571941       0.00153245      -0.00180441       0.00252381      -3.83671029
H        4.41343727      -0.18909290      -1.68713429       0.00229833       0.00021464      -0.00262851      -3.83656381
H        0.67786257      -0.33320576       2.11693299       0.00021005       0.00121419       0.00008723      -3.53799513
H        1.12253087      -1.93916286       1.46196463      -0.00088137       0.00189705      -0.00051549      -3.53660080
H       -0.28584748      -1.65590227      -0.46940166      -0.00277938      -0.00056870       0.00004190      -3.54308387
H       -1.23160289      -1.38883045       1.00801376      -0.00254980       0.00039053       0.00078796      -3.54039142
H       -0.19644641       0.73059145      -0.91479436      -0.00003485       0.00148953       0.00037242      -3.53934954
H       -0.91206161       1.11972073       0.65930100       0.00232103      -0.00153441      -0.00155796      -3.52946796
H       -2.41586011      -0.63095064      -1.33882974       0.00112145       0.00222787       0.00196806      -3.55478171
H       -2.34169233       1.12564023      -1.56780221      -0.00138089       0.00085910      -0.00039457      -3.59934295
H       -4.39581092       0.63166001      -0.41651060       0.00109725      -0.00137052      -0.00024451      -3.42910460
H       -3.27778707       1.45262402       0.73852197       0.00020739      -0.00109965      -0.00026064      -3.41398987
H       -4.26421359      -0.41422684       1.66279345       0.00262983      -0.00210108      -0.00012095      -3.31622526
26
Properties=species:S:1:pos:R:3:forces:R:3:energies:R:1 energy=-157.4524688720703 stress="4.543554865676924e-09 -6.86801934768333e-11 9.808130974064966e-10 -6.86801934768333e-11 1.120781800700854e-09 1.119856651854434e-09 9.808130974064966e-10 1.119856651854434e-09 -5.595702234906241e-10" free_energy=-157.4524688720703 pbc="F F F"
O       -2.06640734       0.84663059       2.54748728      -0.00043494       0.00074399      -0.00026220      -6.39386827
C       -2.59333378       0.53373498       1.48478691       0.00053906       0.00272572       0.00004661      -9.19783491
C       -3.82563251       1.02954047       0.83878787       0.00113076      -0.00285250       0.00015730      -8.53982122
C       -3.94018985       0.48829334      -0.38595654       0.00008297      -0.00243047      -0.00039700      -8.54080741
C       -2.79193878      -0.40498095      -0.64417725      -0.00122976       0.00268149      -0.00112693      -9.19719028
O       -2.45987471      -1.00928138      -1.65730373      -0.00032377      -0.00369179       0.00045611      -6.39319628
N       -2.09450528      -0.41180946       0.57569053       0.00158030       0.00129869       0.00162144      -8.20813596
C       -0.78874148      -1.06425292       0.75147782       0.00304893       0.00140826       0.00075310      -9.59320259
C        0.38494178      -0.11402630       0.56504953      -0.00069966      -0.00025422       0.00064722      -9.57043266
C        1.73055368      -0.81384629       0.67511520      -0.00190030      -0.00004042      -0.00171316      -9.57070720
C        2.92689785       0.12399755       0.43358532      -0.00191295       0.00164306       0.00076470      -9.50298560
C        3.26075670       0.33435157      -1.04006621      -0.00057855      -0.00062490       0.00014254      -9.39499307
O        2.22276574       1.07731580      -1.65735352      -0.00309306      -0.00042021      -0.00114873      -7.13565840
H       -4.45985735       1.73990558       1.34405701       0.00153245      -0.00180441       0.00252381      -3.83671029
H       -4.69269268       0.64308191      -1.14199475       0.00229833       0.00021464      -0.00262851      -3.83656381
H       -0.75189621      -1.87643216       0.01991029       0.00021005       0.00121419       0.00008723      -3.53799513
H       -0.77539547      -1.46808545       1.77080862      -0.00088137       0.00189705      -0.00051549      -3.53660080
H        0.31606518       0.67606318       1.33007300      -0.00277938      -0.00056870       0.00004190      -3.54308387
H        0.30896021       0.36879867      -0.41965793      -0.00254980       0.00039053       0.00078796      -3.54039142
H        1.81457327      -1.23119391       1.68842643      -0.00003485       0.00148953       0.00037242      -3.53934954
H        1.76045226      -1.65283999      -0.03279275       0.00232103      -0.00153441      -0.00155796      -3.52946796
H        3.80123543      -0.31879057       0.92128143       0.00112145       0.00222787       0.00196806      -3.55478171
H        2.72281981       1.08950185       0.91148980      -0.00138089       0.00085910      -0.00039457      -3.59934295
H        4.20212341       0.89936621      -1.11645486       0.00109725      -0.00137052      -0.00024451      -3.42910460
H        3.36863365      -0.64402208      -1.53317087       0.00020739      -0.00109965      -0.00026064      -3.41398987
H        2.41968533       1.15899190      -2.60236788       0.00262983      -0.00210108      -0.00012095      -3.31622526
26
Properties=species:S:1:pos:R:3:forces:R:3:energies:R:1 energy=-157.4524688720703 stress="4.543554865676924e-09 -6.86801934768333e-11 9.808130974064966e-10 -6.86801934768333e-11 1.120781800700854e-09 1.119856651854434e-09 9.808130974064966e-10 1.119856651854434e-09 -5.595702234906241e-10" free_energy=-157.4524688720703 pbc="F F F"
O       -2.51445692      -2.32165303      -0.61824358      -0.00043494       0.00074399      -0.00026220      -6.39386827
C       -2.96735900      -1.25463192      -0.21835916       0.00053906       0.00272572       0.00004661      -9.19783491
C       -4.23957190      -0.94300167       0.46497080       0.00113076      -0.00285250       0.00015730      -8.53982122
C       -4.24418367       0.34742819       0.84108434       0.00008297      -0.00243047      -0.00039700      -8.54080741
C       -2.97735329       0.98646740       0.43063397      -0.00122976       0.00268149      -0.00112693      -9.19719028
O       -2.53466480       2.10638624       0.66194320      -0.00032377      -0.00369179       0.00045611      -6.39319628
N       -2.32292152      -0.01074810      -0.31072742       0.00158030       0.00129869       0.00162144      -8.20813596
C       -0.94119336       0.13553381      -0.79433319       0.00304893       0.00140826       0.00075310      -9.59320259
C        0.11043899      -0.17011315       0.26375578      -0.00069966      -0.00025422       0.00064722      -9.57043266
C        1.51758486       0.07884902      -0.25551153      -0.00190030      -0.00004042      -0.00171316      -9.57070720
C        2.58987845      -0.20964535       0.79813177      -0.00191295       0.00164306       0.00076470      -9.50298560
C        3.99841409       0.07994141       0.30245238      -0.00057855      -0.00062490       0.00014254      -9.39499307
O        4.13741934       1.47806510       0.10450893      -0.00309306      -0.00042021      -0.00114873      -7.13565840
H       -4.98009155      -1.71104010       0.61942981       0.00153245      -0.00180441       0.00252381      -3.83671029
H       -4.98834868       0.90671453       1.38488883       0.00229833       0.00021464      -0.00262851      -3.83656381
H       -0.84390310       1.17161315      -1.13577855       0.00021005       0.00121419       0.00008723      -3.53799513
H       -0.83600384      -0.55554324      -1.63743964      -0.00088137       0.00189705      -0.00051549      -3.53660080
H       -0.07198077       0.46601047       1.14361262      -0.00277938      -0.00056870       0.00004190      -3.54308387
H        0.00434486      -1.22213675       0.56993411      -0.00254980       0.00039053       0.00078796      -3.54039142
H        1.60119307       1.12658328      -0.57769502      -0.00003485       0.00148953       0.00037242      -3.53934954
H        1.69612328      -0.55325558      -1.13856928       0.00232103      -0.00153441      -0.00155796      -3.52946796
H        2.37579074       0.39893018       1.68625919       0.00112145       0.00222787       0.00196806      -3.55478171
H        2.52536717      -1.26625292       1.08593510      -0.00138089       0.00085910      -0.00039457      -3.59934295
H        4.71404507      -0.25704483       1.06657240       0.00109725      -0.00137052      -0.00024451      -3.42910460
H        4.16995564      -0.45795569      -0.64236594       0.00020739      -0.00109965      -0.00026064      -3.41398987
H        5.02147772       1.65049311      -0.25087731       0.00262983      -0.00210108      -0.00012095      -3.31622526
26
Properties=species:S:1:pos:R:3:forces:R:3:energies:R:1 energy=-157.4524688720703 stress="4.543554865676924e-09 -6.86801934768333e-11 9.808130974064966e-10 -6.86801934768333e-11 1.120781800700854e-09 1.119856651854434e-09 9.808130974064966e-10 1.119856651854434e-09 -5.595702234906241e-10" free_energy=-157.4524688720703 pbc="F F F"
O        2.40595131      -0.50774569      -1.95722374      -0.00043494       0.00074399      -0.00026220      -6.39386827
C        2.83779382       0.01238202      -0.93419358       0.00053906       0.00272572       0.00004661      -9.19783491
C        4.21765641       0.12343222      -0.41822147       0.00113076      -0.00285250       0.00015730      -8.53982122
C        4.19510235       0.66010766       0.81405557       0.00008297      -0.00243047      -0.00039700      -8.54080741
C        2.79928164       0.94350074       1.20479236      -0.00122976       0.00268149      -0.00112693      -9.19719028
O        2.32908534       1.33014406       2.26922572      -0.00032377      -0.00369179       0.00045611      -6.39319628
N        2.06044929       0.64570955       0.04885100       0.00158030       0.00129869       0.00162144      -8.20813596
C        0.58855773       0.62780855       0.02673314       0.00304893       0.00140826       0.00075310      -9.59320259
C       -0.01953103      -0.69109448       0.50185694      -0.00069966      -0.00025422       0.00064722      -9.57043266
C       -1.54196835      -0.63989587       0.58949841      -0.00190030      -0.00004042      -0.00171316      -9.57070720
C       -2.24026556      -0.36880018      -0.74909623      -0.00191295       0.00164306       0.00076470      -9.50298560
C       -3.75904709      -0.39751487      -0.64134364      -0.00057855      -0.00062490       0.00014254      -9.39499307
O       -4.18851432       0.73596704       0.09619348      -0.00309306      -0.00042021      -0.00114873      -7.13565840
H        5.05130490      -0.22878322      -1.00415417       0.00153245      -0.00180441       0.00252381      -3.83671029
H        5.00501655       0.85915919       1.49704847       0.00229833       0.00021464      -0.00262851      -3.83656381
H        0.29751177       0.82988362      -1.01025445       0.00021005       0.00121419       0.00008723      -3.53799513
H        0.26604227       1.45037642       0.67595549      -0.00088137       0.00189705      -0.00051549      -3.53660080
H        0.38108721      -0.91685167       1.49990270      -0.00277938      -0.00056870       0.00004190      -3.54308387
H        0.29728624      -1.48721703      -0.18741950      -0.00254980       0.00039053       0.00078796      -3.54039142
H       -1.84004344       0.14163692       1.30187259      -0.00003485       0.00148953       0.00037242      -3.53934954
H       -1.89535268      -1.60240234       0.98126594       0.00232103      -0.00153441      -0.00155796      -3.52946796
H       -1.92568760      -1.13329823      -1.47270489       0.00112145       0.00222787       0.00196806      -3.55478171
H       -1.91530976       0.60796488      -1.13044499      -0.00138089       0.00085910      -0.00039457      -3.59934295
H       -4.07584097      -1.32361696      -0.13736700       0.00109725      -0.00137052      -0.00024451      -3.42910460
H       -4.18031274      -0.35770588      -1.65702075       0.00020739      -0.00109965      -0.00026064      -3.41398987
H       -5.15025310       0.68685338       0.19887598       0.00262983      -0.00210108      -0.00012095      -3.31622526
