26
Properties=species:S:1:pos:R:3:forces:R:3:energies:R:1 energy=-157.4524688720703 stress="4.543554865676924e-09 -6.86801934768333e-11 9.808130974064966e-10 -6.86801934768333e-11 1.120781800700854e-09 1.119856651854434e-09 9.808130974064966e-10 1.119856651854434e-09 -5.595702234906241e-10" free_energy=-157.4524688720703 pbc="F F F"
O       -2.06640734       0.84663059       2.54748728      -0.00043494       0.00074399      -0.00026220      -6.39386827
C       -2.59333378       0.53373498       1.48478691       0.00053906       0.00272572       0.00004661      -9.19783491
C       -3.82563251       1.02954047       0.83878787       0.00113076      -0.00285250       0.00015730      -8.53982122
C       -3.94018985       0.48829334      -0.38595654       0.00008297      -0.00243047      -0.00039700      -8.54080741
C       -2.79193878      -0.40498095      -0.64417725      -0.00122976       0.00268149      -0.00112693      -9.19719028
O       -2.45987471      -1.00928138      -1.65730373      -0.00032377      -0.00369179       0.00045611      -6.39319628
N       -2.09450528      -0.41180946       0.57569053       0.00158030       0.00129869       0.00162144      -8.20813596
C       -0.78874148      -1.06425292       0.75147782       0.00304893       0.00140826       0.00075310      -9.59320259
C        0.38494178      -0.11402630       0.56504953      -0.00069966      -0.00025422       0.00064722      -9.57043266
C        1.73055368      -0.81384629       0.67511520      -0.00190030      -0.00004042      -0.00171316      -9.57070720
C        2.92689785       0.12399755       0.43358532      -0.00191295       0.00164306       0.00076470      -9.50298560
C        3.26075670       0.33435157      -1.04006621      -0.00057855      -0.00062490       0.00014254      -9.39499307
O        2.22276574       1.07731580      -1.65735352      -0.00309306      -0.00042021      -0.00114873      -7.13565840
H       -4.45985735       1.73990558       1.34405701       0.00153245      -0.00180441       0.00252381      -3.83671029
H       -4.69269268       0.64308191      -1.14199475       0.00229833       0.00021464      -0.00262851      -3.83656381
H       -0.75189621      -1.87643216       0.01991029       0.00021005       0.00121419       0.00008723      -3.53799513
H       -0.77539547      -1.46808545       1.77080862      -0.00088137       0.00189705      -0.00051549      -3.53660080
H        0.31606518       0.67606318       1.33007300      -0.00277938      -0.00056870       0.00004190      -3.54308387
H        0.30896021       0.36879867      -0.41965793      -0.00254980       0.00039053       0.00078796      -3.54039142
H        1.81457327      -1.23119391       1.68842643      -0.00003485       0.00148953       0.00037242      -3.53934954
H        1.76045226      -1.65283999      -0.03279275       0.00232103      -0.00153441      -0.00155796      -3.52946796
H        3.80123543      -0.31879057       0.92128143       0.00112145       0.00222787       0.00196806      -3.55478171
H        2.72281981       1.08950185       0.91148980      -0.00138089       0.00085910      -0.00039457      -3.59934295
H        4.20212341       0.89936621      -1.11645486       0.00109725      -0.00137052      -0.00024451      -3.42910460
H        3.36863365      -0.64402208      -1.53317087       0.00020739      -0.00109965      -0.00026064      -3.41398987
H        2.41968533       1.15899190      -2.60236788       0.00262983      -0.00210108      -0.00012095      -3.31622526
