26
Properties=species:S:1:pos:R:3:forces:R:3:energies:R:1 energy=-157.45236206054688 stress="2.748807848007573e-09 -6.552164366624424e-10 7.58688722957146e-10 -6.552164366624424e-10 2.9315478933256145e-09 1.463110410604429e-09 7.58688722957146e-10 1.463110410604429e-09 1.8742576379793263e-09" free_energy=-157.45236206054688 pbc="F F F"
O        2.40595498      -0.50774096      -1.95722753      -0.00026691       0.00083899      -0.00007743      -6.39342511
C        2.83779381       0.01237971      -0.93419204       0.00025988       0.00044036       0.00034219      -9.19794798
C        4.21765712       0.12342653      -0.41821710       0.00064647      -0.00188854       0.00095630      -8.53994389
C        4.19510251       0.66010401       0.81405928       0.00020200      -0.00174552      -0.00039721      -8.54071270
C        2.79928253       0.94350054       1.20479143      -0.00101972      -0.00030744      -0.00005404      -9.19725835
O        2.32908551       1.33015444       2.26921948       0.00062859      -0.00138772       0.00027116      -6.39341348
N        2.06044943       0.64570449       0.04885239      -0.00035864       0.00075472       0.00018431      -8.20859587
C        0.58855706       0.62780714       0.02673100      -0.00009581       0.00125495       0.00098300      -9.59301496
C       -0.01953282      -0.69109363       0.50185344       0.00298820       0.00075036      -0.00155187      -9.57050073
C       -1.54196827      -0.63989269       0.58950080       0.00263952       0.00048064       0.00080790      -9.57009304
C       -2.24026836      -0.36879750      -0.74909673      -0.00031200       0.00078842       0.00104457      -9.50252223
C       -3.75904882      -0.39751783      -0.64134310      -0.00204332      -0.00206363       0.00031722      -9.39507759
O       -4.18851342       0.73596430       0.09619465       0.00320230      -0.00174856      -0.00075093      -7.13613050
H        5.05130727      -0.22878650      -1.00414973      -0.00000419      -0.00150242       0.00227298      -3.83667882
H        5.00501683       0.85916035       1.49704940       0.00080828      -0.00048137      -0.00204033      -3.83660267
H        0.29751116       0.82988544      -1.01025587       0.00152580       0.00051346      -0.00066748      -3.53805219
H        0.26604283       1.45037338       0.67595448      -0.00095745       0.00299722      -0.00036395      -3.53638963
H        0.38108513      -0.91685454       1.49989741      -0.00267600      -0.00228321      -0.00231712      -3.54329547
H        0.29727967      -1.48721604      -0.18742404      -0.00119956       0.00293458       0.00001778      -3.54023515
H       -1.84004373       0.14164266       1.30187291      -0.00032575      -0.00106335       0.00068356      -3.53957503
H       -1.89535459      -1.60239811       0.98126997       0.00135633       0.00237375       0.00103669      -3.52973983
H       -1.92567958      -1.13329148      -1.47270561       0.00028943       0.00202986      -0.00046250      -3.55502738
H       -1.91531593       0.60797039      -1.13044130      -0.00193600       0.00167790       0.00028606      -3.59926953
H       -4.07583522      -1.32362320      -0.13736915       0.00005803       0.00011879      -0.00378680      -3.42923056
H       -4.18031255      -0.35771016      -1.65702042      -0.00019799      -0.00164056       0.00263973      -3.41367015
H       -5.15025427       0.68684825       0.19887789      -0.00321140      -0.00184129       0.00062604      -3.31592470
