26
Properties=species:S:1:pos:R:3:forces:R:3:energies:R:1 energy=-157.45236206054688 stress="2.748807848007573e-09 -6.552164366624424e-10 7.58688722957146e-10 -6.552164366624424e-10 2.9315478933256145e-09 1.463110410604429e-09 7.58688722957146e-10 1.463110410604429e-09 1.8742576379793263e-09" free_energy=-157.45236206054688 pbc="F F F"
O       -2.06547129       0.84810756       2.54676460      -0.00026691       0.00083899      -0.00007743      -6.39342511
C       -2.59276836       0.53461493       1.48436338       0.00025988       0.00044036       0.00034219      -9.19794798
C       -3.82510334       1.02996800       0.83789122       0.00064647      -0.00188854       0.00095630      -8.53994389
C       -3.93974353       0.48796261      -0.38657751       0.00020200      -0.00174552      -0.00039721      -8.54071270
C       -2.79165492      -0.40586295      -0.64407812      -0.00101972      -0.00030744      -0.00005404      -9.19725835
O       -2.45958834      -1.01062124      -1.65697154       0.00062859      -0.00138772       0.00027116      -6.39341348
N       -2.09465836      -0.41244018       0.57617798      -0.00035864       0.00075472       0.00018431      -8.20859587
C       -0.78877232      -1.06473116       0.75229330      -0.00009581       0.00125495       0.00098300      -9.59301496
C        0.38489714      -0.11424534       0.56584046       0.00298820       0.00075036      -0.00155187      -9.57050073
C        1.73052817      -0.81430826       0.67434081       0.00263952       0.00048064       0.00080790      -9.57009304
C        2.92679701       0.12359071       0.43356921      -0.00031200       0.00078842       0.00104457      -9.50252223
C        3.26045954       0.33498391      -1.03983239      -0.00204332      -0.00206363       0.00031722      -9.39507759
O        2.22242025       1.07855751      -1.65641591       0.00320230      -0.00174856      -0.00075093      -7.13613050
H       -4.45907214       1.74095782       1.34265626      -0.00000419      -0.00150242       0.00227298      -3.83667882
H       -4.69231348       0.64249065      -1.14270247       0.00080828      -0.00048137      -0.00204033      -3.83660267
H       -0.75202457      -1.87666775       0.02041463       0.00152580       0.00051346      -0.00066748      -3.53805219
H       -0.77560547      -1.46873869       1.77166128      -0.00095745       0.00299722      -0.00036395      -3.53638963
H        0.31630105       0.67538593       1.33142030      -0.00267600      -0.00228321      -0.00231712      -3.54329547
H        0.30817604       0.36921823      -0.41855431      -0.00119956       0.00293458       0.00001778      -3.54023515
H        1.81493225      -1.23275924       1.68715376      -0.00032575      -0.00106335       0.00068356      -3.53957503
H        1.75972365      -1.65245482      -0.03466307       0.00135633       0.00237375       0.00103669      -3.52973983
H        3.80099818      -0.31971427       0.92086975       0.00028943       0.00202986      -0.00046250      -3.55502738
H        2.72299830       1.08869648       0.91231494      -0.00193600       0.00167790       0.00028606      -3.59926953
H        4.20195530       0.89973660      -1.11595558       0.00005803       0.00011879      -0.00378680      -3.42923056
H        3.36752331      -0.64301450      -1.53383569      -0.00019799      -0.00164056       0.00263973      -3.41367015
H        2.41906053       1.16128620      -2.60141734      -0.00321140      -0.00184129       0.00062604      -3.31592470
