26
Properties=species:S:1:pos:R:3:forces:R:3:energies:R:1 energy=-157.45236206054688 stress="2.748807848007573e-09 -6.552164366624424e-10 7.58688722957146e-10 -6.552164366624424e-10 2.9315478933256145e-09 1.463110410604429e-09 7.58688722957146e-10 1.463110410604429e-09 1.8742576379793263e-09" free_energy=-157.45236206054688 pbc="F F F"
O       -0.56578816       2.18114055      -0.34605814      -0.00026691       0.00083899      -0.00007743      -6.39342511
C       -1.32311881       1.32841520       0.11778191       0.00025988       0.00044036       0.00034219      -9.19794798
C       -2.22236420       1.40809356       1.28111001       0.00064647      -0.00188854       0.00095630      -8.53994389
C       -2.89865116       0.25188568       1.40104984       0.00020200      -0.00174552      -0.00039721      -8.54071270
C       -2.49396708      -0.67537140       0.33431633      -0.00101972      -0.00030744      -0.00005404      -9.19725835
O       -2.87670148      -1.80903319       0.06790755       0.00062859      -0.00138772       0.00027116      -6.39341348
N       -1.48769540       0.02490218      -0.36144480      -0.00035864       0.00075472       0.00018431      -8.20859587
C       -0.93567372      -0.43417847      -1.64157632      -0.00009581       0.00125495       0.00098300      -9.59301496
C        0.58687676      -0.46572468      -1.66309099       0.00298820       0.00075036      -0.00155187      -9.57050073
C        1.21528534      -1.29002288      -0.53313386       0.00263952       0.00048064       0.00080790      -9.57009304
C        2.43833848      -0.64284569       0.12674632      -0.00031200       0.00078842       0.00104457      -9.50252223
C        2.17024900       0.68560273       0.82530496      -0.00204332      -0.00206363       0.00031722      -9.39507759
O        1.12840156       0.50459319       1.77118379       0.00320230      -0.00174856      -0.00075093      -7.13613050
H       -2.26970905       2.31263397       1.86756283      -0.00000419      -0.00150242       0.00227298      -3.83667882
H       -3.64193965      -0.03634118       2.12653504       0.00080828      -0.00048137      -0.00204033      -3.83660267
H       -1.34798363      -1.43261237      -1.80599817       0.00152580       0.00051346      -0.00066748      -3.53805219
H       -1.28872125       0.24311778      -2.43094188      -0.00095745       0.00299722      -0.00036395      -3.53638963
H        0.96868842       0.56150230      -1.67243059      -0.00267600      -0.00228321      -0.00231712      -3.54329547
H        0.86921817      -0.92609470      -2.62048550      -0.00119956       0.00293458       0.00001778      -3.54023515
H        0.46757021      -1.52333950       0.23593047      -0.00032575      -0.00106335       0.00068356      -3.53957503
H        1.53647042      -2.24789127      -0.96690861       0.00135633       0.00237375       0.00103669      -3.52973983
H        3.21920846      -0.48581529      -0.62626146       0.00028943       0.00202986      -0.00046250      -3.55502738
H        2.82793441      -1.35224478       0.86625436      -0.00193600       0.00167790       0.00028606      -3.59926953
H        1.87925854       1.45896347       0.09845367       0.00005803       0.00011879      -0.00378680      -3.42923056
H        3.08881946       1.00380122       1.34582630      -0.00019799      -0.00164056       0.00263973      -3.41367015
H        0.95597331       1.35687056       2.20240146      -0.00321140      -0.00184129       0.00062604      -3.31592470
