26
Properties=species:S:1:pos:R:3:forces:R:3:energies:R:1 energy=-157.45236206054688 stress="2.748807848007573e-09 -6.552164366624424e-10 7.58688722957146e-10 -6.552164366624424e-10 2.9315478933256145e-09 1.463110410604429e-09 7.58688722957146e-10 1.463110410604429e-09 1.8742576379793263e-09" free_energy=-157.45236206054688 pbc="F F F"
O        1.97086502       1.77260740       1.59341686      -0.00026691       0.00083899      -0.00007743      -6.39342511
C        2.45262729       0.98695275       0.78324130       0.00025988       0.00044036       0.00034219      -9.19794798
C        3.58790317       1.14224281      -0.14623603       0.00064647      -0.00188854       0.00095630      -8.53994389
C        3.71061520       0.03729043      -0.90200368       0.00020200      -0.00174552      -0.00039721      -8.54071270
C        2.66908180      -0.93745610      -0.52774590      -0.00101972      -0.00030744      -0.00005404      -9.19725835
O        2.40449289      -2.04013823      -0.99486795       0.00062859      -0.00138772       0.00027116      -6.39341348
N        1.98308284      -0.31087247       0.52518185      -0.00035864       0.00075472       0.00018431      -8.20859587
C        0.83794408      -0.91403314       1.20504037      -0.00009581       0.00125495       0.00098300      -9.59301496
C       -0.44006822      -0.96707341       0.37292848       0.00298820       0.00075036      -0.00155187      -9.57050073
C       -0.91490194       0.38155400      -0.15564801       0.00263952       0.00048064       0.00080790      -9.57009304
C       -2.30462230       0.32802256      -0.81850593      -0.00031200       0.00078842       0.00104457      -9.50252223
C       -3.46016539       0.53803420       0.15513218      -0.00204332      -0.00206363       0.00031722      -9.39507759
O       -3.55531066      -0.57901807       1.02350050       0.00320230      -0.00174856      -0.00075093      -7.13613050
H        4.16601993       2.05208876      -0.15583223      -0.00000419      -0.00150242       0.00227298      -3.83667882
H        4.41429385      -0.18934109      -1.68659846       0.00080828      -0.00048137      -0.00204033      -3.83660267
H        0.67720439      -0.33311723       2.11659751       0.00152580       0.00051346      -0.00066748      -3.53805219
H        1.12252025      -1.93904534       1.46180415      -0.00095745       0.00299722      -0.00036395      -3.53638963
H       -0.28464734      -1.65530177      -0.47084955      -0.00267600      -0.00228321      -0.00231712      -3.54329547
H       -1.23164830      -1.39038612       1.00623745      -0.00119956       0.00293458       0.00001778      -3.54023515
H       -0.19678266       0.73119763      -0.91407272      -0.00032575      -0.00106335       0.00068356      -3.53957503
H       -0.91272608       1.11904207       0.66021315       0.00135633       0.00237375       0.00103669      -3.52973983
H       -2.41642805      -0.63070205      -1.33878885       0.00028943       0.00202986      -0.00046250      -3.55502738
H       -2.34210860       1.12589755      -1.56755205      -0.00193600       0.00167790       0.00028606      -3.59926953
H       -4.39576777       0.63284054      -0.41622256       0.00005803       0.00011879      -0.00378680      -3.42923056
H       -3.27754761       1.45269253       0.73927968      -0.00019799      -0.00164056       0.00263973      -3.41367015
H       -4.26394039      -0.41399331       1.66352761      -0.00321140      -0.00184129       0.00062604      -3.31592470
