26
Properties=species:S:1:pos:R:3:forces:R:3:energies:R:1 energy=-157.45236206054688 stress="2.748807848007573e-09 -6.552164366624424e-10 7.58688722957146e-10 -6.552164366624424e-10 2.9315478933256145e-09 1.463110410604429e-09 7.58688722957146e-10 1.463110410604429e-09 1.8742576379793263e-09" free_energy=-157.45236206054688 pbc="F F F"
O       -2.51366820      -2.32099154      -0.62046513      -0.00026691       0.00083899      -0.00007743      -6.39342511
C       -2.96667543      -1.25405593      -0.22037553       0.00025988       0.00044036       0.00034219      -9.19794798
C       -4.23924000      -0.94265782       0.46222611       0.00064647      -0.00188854       0.00095630      -8.53994389
C       -4.24455902       0.34796983       0.83771361       0.00020200      -0.00174552      -0.00039721      -8.54071270
C       -2.97750172       0.98719263       0.42828201      -0.00101972      -0.00030744      -0.00005404      -9.19725835
O       -2.53524782       2.10720785       0.65969775       0.00062859      -0.00138772       0.00027116      -6.39341348
N       -2.32201411      -0.01031110      -0.31174777      -0.00035864       0.00075472       0.00018431      -8.20859587
C       -0.93998824       0.13565287      -0.79413180      -0.00009581       0.00125495       0.00098300      -9.59301496
C        0.11039703      -0.17303195       0.26423380       0.00298820       0.00075036      -0.00155187      -9.57050073
C        1.51764201       0.07250367      -0.25668623       0.00263952       0.00048064       0.00080790      -9.57009304
C        2.59030201      -0.21336901       0.79735998      -0.00031200       0.00078842       0.00104457      -9.50252223
C        3.99837530       0.08568261       0.30555081      -0.00204332      -0.00206363       0.00031722      -9.39507759
O        4.13018259       1.48507928       0.11138506       0.00320230      -0.00174856      -0.00075093      -7.13613050
H       -4.97931047      -1.71108115       0.61676393      -0.00000419      -0.00150242       0.00227298      -3.83667882
H       -4.98919874       0.90752077       1.38054188       0.00080828      -0.00048137      -0.00204033      -3.83660267
H       -0.84175508       1.17236923      -1.13336497       0.00152580       0.00051346      -0.00066748      -3.53805219
H       -0.83470771      -0.55401542      -1.63843966      -0.00095745       0.00299722      -0.00036395      -3.53638963
H       -0.07007611       0.46383468       1.14407752      -0.00267600      -0.00228321      -0.00231712      -3.54329547
H        0.00153390      -1.22485863       0.57039085      -0.00119956       0.00293458       0.00001778      -3.54023515
H        1.60219749       1.11897733      -0.58293770      -0.00032575      -0.00106335       0.00068356      -3.53957503
H        1.69501123      -0.56352872      -1.13733231       0.00135633       0.00237375       0.00103669      -3.52973983
H        2.37186862       0.39011166       1.68799363       0.00028943       0.00202986      -0.00046250      -3.55502738
H        2.53153439      -1.27153947       1.08069635      -0.00193600       0.00167790       0.00028606      -3.59926953
H        4.71383109      -0.24982262       1.07068865       0.00005803       0.00011879      -0.00378680      -3.42923056
H        4.17515712      -0.44816292      -0.64065501      -0.00019799      -0.00164056       0.00263973      -3.41367015
H        5.01590467       1.66332968      -0.23725083      -0.00321140      -0.00184129       0.00062604      -3.31592470
